197
68
21
71
131
121
425
327
21
483
485
436
115
300
408
480
86
450
94
97
204
159
360
350
275
177
210
355
411
235
96
219
85
150
137
109
332
300
500
464
180
45
474
287
321
72
44
120
216
68
136
429
336
194
161
428
62
67
163
155
376
418
386
475
379
323
135
289
254
226
99
389
234
205
53
206
310
217
66
182
100
194
179
195
401
109
135
323
277
418
183
415
11
274
14
153
359
256
485
334
389
135
74
203
336
299
252
192
269
310
205
251
302
212
80
13
447
162
93
141
400
436
67
449
409
483
484
194
336
209
465
64
144
471
197
325
365
326
134
146
196
136
43
461
113
98
33
442
474
287
72
81
479
344
413
280
273
433
24
161
119
106
190
236
308
458
1
424
467
76
371
171
269
224
188
235
358
116
308
203
57
390
26
353
253
30
199
290
457
24
318
98
244
159
313
274
49
223
168
